
Gurobi 9.5.1 (linux64) logging started Tue 16 Aug 2022 03:05:02 PM MST

Set parameter LogFile to value "/home/local/ASUAD/kmajd1/NNRepLayer_v2/demos/walking_example/global_constraint_upper_10/repair_net/logs/opt_log_multi_8.log"
Gurobi Optimizer version 9.5.1 build v9.5.1rc2 (linux64)
Thread count: 48 physical cores, 96 logical processors, using up to 45 threads
Optimize a model with 16863 rows, 10742 columns and 137855 nonzeros
Model fingerprint: 0x9fdb6f42
Model has 149 quadratic objective terms
Variable types: 5974 continuous, 4768 integer (4768 binary)
Coefficient statistics:
  Matrix range     [2e-03, 2e+02]
  Objective range  [3e-04, 1e+00]
  QObjective range [1e-02, 1e-02]
  Bounds range     [1e+00, 1e+03]
  RHS range        [4e-04, 2e+02]

Concurrent MIP optimizer: 3 concurrent instances (15 threads per instance)

Presolve removed 490 rows and 96 columns
Presolve time: 0.20s
Presolved: 16373 rows, 10646 columns, 137173 nonzeros
Presolved model has 149 quadratic objective terms
Variable types: 5878 continuous, 4768 integer (4768 binary)
Root relaxation presolve removed 4768 rows and 4768 columns
Root relaxation presolved: 11605 rows, 5878 columns, 122869 nonzeros
Root relaxation presolved model has 149 quadratic objective terms


Root relaxation: objective 3.197256e+01, 6823 iterations, 0.19 seconds (0.25 work units)

    Nodes    |    Current Node    |     Objective Bounds      |     Work
 Expl Unexpl |  Obj  Depth IntInf | Incumbent    BestBd   Gap | It/Node Time

     0     0      -    -    -      191.91328   31.97256  83.3%     -    1s
     0     0      -    -    -      189.38775   31.97256  83.1%     -    5s
     0     2      -    -    -       52.55387   31.97256  39.2%     -    8s
   148   170      -    -    -       52.55387   31.97256  39.2%     -   11s
   380   396      -    -    -       48.34053   31.97930  33.8%     -   22s
   412   458      -    -    -       48.34053   31.97930  33.8%     -   25s
  1051  1067      -    -    -       37.97095   31.97930  15.8%     -   39s

Instance 0 was solved

Explored 1066 nodes (190895 simplex iterations) in 39.79 seconds (72.14 work units)
Thread count was 15 (of 96 available processors)

Solution count 10: 35.8433 37.9709 48.3394 ... 80.6038 

Optimal solution found (tolerance 1.10e-01)
Best objective 3.584327385349e+01, best bound 3.197930409666e+01, gap 10.7802%
